(set-info :status unknown)
(declare-fun C () (_ BitVec 16))
(declare-fun |ana_WillNotOverflowSignedAdd(%x, trunc(C))| () (_ BitVec 1))
(declare-fun u_%sx () (_ BitVec 8))
(declare-fun %x () (_ BitVec 8))
(assert
 (let (($x3084 (= |ana_WillNotOverflowSignedAdd(%x, trunc(C))| (_ bv1 1))))
 (let (($x3206 (= (bvadd ((_ sign_extend 1) %x) ((_ sign_extend 1) ((_ extract 7 0) C))) ((_ sign_extend 1) (bvadd %x ((_ extract 7 0) C))))))
 (and (=> $x3084 $x3206) (= u_%sx (_ bv1 8)) $x3084 (= (bvand C (bvshl (_ bv65535 16) (bvsub (_ bv8 16) (_ bv1 16)))) (_ bv0 16)) false))))
(check-sat)
